(declare-fun temp270_1 () (_ BitVec 64))
(declare-fun temp270_2 () (_ BitVec 64))
(declare-fun var1445930 () (_ BitVec 64))
(declare-fun k!0 () Bool)
(declare-fun ARGNAME_input_NAMEEND_DIM () (_ BitVec 64))
(declare-fun temp270_4 () (_ BitVec 64))
(declare-fun temp270_3 () (_ BitVec 64))
(declare-fun temp270_5 () (_ BitVec 64))
(declare-fun var2036022 () (_ BitVec 64))
(declare-fun temp270_7 () (_ BitVec 64))
(declare-fun temp270_6 () (_ BitVec 64))
(declare-fun temp270_8 () (_ BitVec 64))
(declare-fun var2560310 () (_ BitVec 64))
(declare-fun var2625857 () (_ BitVec 64))
(declare-fun temp270_10 () (_ BitVec 64))
(declare-fun temp270_9 () (_ BitVec 64))
(declare-fun temp270_11 () (_ BitVec 64))
(declare-fun var3477814 () (_ BitVec 64))
(declare-fun var3543361 () (_ BitVec 64))
(declare-fun temp270_13 () (_ BitVec 64))
(declare-fun temp270_12 () (_ BitVec 64))
(declare-fun temp270_14 () (_ BitVec 64))
(declare-fun var4198710 () (_ BitVec 64))
(declare-fun var4264257 () (_ BitVec 64))
(declare-fun temp270_15 () (_ BitVec 64))
(declare-fun var3280740 () (_ BitVec 64))
(declare-fun temp270_17 () (_ BitVec 64))
(declare-fun temp270_16 () (_ BitVec 64))
(declare-fun temp270_19 () (_ BitVec 64))
(declare-fun temp270_18 () (_ BitVec 64))
(declare-fun temp270_21 () (_ BitVec 64))
(declare-fun temp270_20 () (_ BitVec 64))
(declare-fun temp270_23 () (_ BitVec 64))
(declare-fun temp270_22 () (_ BitVec 64))
(declare-fun temp270_25 () (_ BitVec 64))
(declare-fun temp270_24 () (_ BitVec 64))
(declare-fun temp270_27 () (_ BitVec 64))
(declare-fun temp270_26 () (_ BitVec 64))
(declare-fun temp270_29 () (_ BitVec 64))
(declare-fun temp270_28 () (_ BitVec 64))
(declare-fun temp270_31 () (_ BitVec 64))
(declare-fun temp270_30 () (_ BitVec 64))
(declare-fun temp270_33 () (_ BitVec 64))
(declare-fun temp270_32 () (_ BitVec 64))
(declare-fun temp270_35 () (_ BitVec 64))
(declare-fun temp270_34 () (_ BitVec 64))
(declare-fun temp270_36 () (_ BitVec 64))
(declare-fun var3283973 () (_ BitVec 64))
(declare-fun temp270_38 () (_ BitVec 64))
(declare-fun temp270_37 () (_ BitVec 64))
(declare-fun temp270_40 () (_ BitVec 64))
(declare-fun temp270_39 () (_ BitVec 64))
(declare-fun temp270_42 () (_ BitVec 64))
(declare-fun temp270_41 () (_ BitVec 64))
(declare-fun temp270_44 () (_ BitVec 64))
(declare-fun temp270_43 () (_ BitVec 64))
(declare-fun temp270_46 () (_ BitVec 64))
(declare-fun temp270_45 () (_ BitVec 64))
(declare-fun temp270_48 () (_ BitVec 64))
(declare-fun temp270_47 () (_ BitVec 64))
(declare-fun temp270_50 () (_ BitVec 64))
(declare-fun temp270_49 () (_ BitVec 64))
(assert (= temp270_1 #x0000000000000040))
(assert (= var1445930
   (ite (bvsgt ARGNAME_input_NAMEEND_DIM temp270_1)
        #x0000000000000001
        #x0000000000000000)))
(assert (= temp270_2 #x0000000000000000))
(assert (= var1445930 temp270_2))
(assert (= temp270_4 #x0000000000000000))
(assert (= temp270_3 temp270_4))
(assert (= temp270_5 #x0000000000000000))
(assert (= var2036022 temp270_5))
(assert (= temp270_7 #x0000000000000000))
(assert (= temp270_6 temp270_7))
(assert (= temp270_8 #x0000000000000000))
(assert (= var2560310 temp270_8))
(assert (= var2625857 var2560310))
(assert (= temp270_10 #x0000000000000000))
(assert (= temp270_9 temp270_10))
(assert (= temp270_11 #x0000000000000000))
(assert (= var3477814 temp270_11))
(assert (= var3543361 var3477814))
(assert (= temp270_13 #x0000000000000000))
(assert (= temp270_12 temp270_13))
(assert (= temp270_14 #x0000000000000000))
(assert (= var4198710 temp270_14))
(assert (= var4264257 var4198710))
(assert (= temp270_15 #x0000000000000001))
(assert (= var3280740 temp270_15))
(assert (= temp270_17 #x0000000000000001))
(assert (= temp270_16 temp270_17))
(assert (= temp270_19 #xffffffffffffffff))
(assert (= temp270_18 temp270_19))
(assert (= temp270_21 #x0000000000000000))
(assert (= temp270_20 temp270_21))
(assert (= temp270_23 #xffffffffffffffff))
(assert (= temp270_22 temp270_23))
(assert (= temp270_25 #x0000000000000001))
(assert (= temp270_24 temp270_25))
(assert (= temp270_27 #x0000000000000000))
(assert (= temp270_26 temp270_27))
(assert (= temp270_29 #xfffffffffffffffe))
(assert (= temp270_28 temp270_29))
(assert (= temp270_31 #x0000000000000001))
(assert (= temp270_30 temp270_31))
(assert (= temp270_33 #xffffffffffffffff))
(assert (= temp270_32 temp270_33))
(assert (= temp270_35 #x0000000000000002))
(assert (= temp270_34 temp270_35))
(assert (= temp270_36 #x0000000000000001))
(assert (or false (= var3283973 temp270_36)))
(assert (= temp270_38 #x0000000000000001))
(assert (= temp270_37 temp270_38))
(assert (= temp270_40 #x0000000000000002))
(assert (= temp270_39 temp270_40))
(assert (= temp270_42 #x0000000000000000))
(assert (= temp270_41 temp270_42))
(assert (= temp270_44 #x0000000000000001))
(assert (= temp270_43 temp270_44))
(assert (= temp270_46 #xffffffffffffffff))
(assert (= temp270_45 temp270_46))
(assert (= temp270_48 #xfffffffffffffffe))
(assert (= temp270_47 temp270_48))
(assert (= temp270_50 #xffffffffffffffff))
(assert (= temp270_49 temp270_50))
(model-add temp270_1 () (_ BitVec 64) #x0000000000000040)
(model-add temp270_2 () (_ BitVec 64) #x0000000000000000)
(model-add var1445930 () (_ BitVec 64) #x0000000000000000)
(model-del k!0)
(model-add ARGNAME_input_NAMEEND_DIM
           ()
           (_ BitVec 64)
           (ite (or k!0 (= #x0000000000000040 #x7fffffffffffffff))
                #x0000000000000040
                (bvadd #x0000000000000040 #x0000000000000001)))





